% ----DATA VARIABLES----

t=4;%number of attributes
k=3;%max length of the support set
n=3;%number of positive instances
m=3;%number of negative instances
c=1;%number of atMostOne Constraints

% ----OMEGAS----

omegap= [| 1, 1, 1, 0|
 1, 1, 0, 0|
 0, 0, 0, 0|];

omegan= [| 0, 1, 0, 1|
 1, 1, 1, 1|
 0, 1, 1, 1|];

% ----CONSTRAINS----

atMostOne=[{1,2,3}];